p cnf 13 28
1  2 -3 0
-1 -2  3 0
1 -2  3 0
-1  2 -3 0
4  5 -6 0
-4 -5  6 0
4 -5  6 0
-4  5 -6 0
 -5 -6 0
 7 0
 -4 0
 -5 6 0
 8 0
 -2 -3 0
 9 0
 -1 0
 -2 3 0
 10 0
 -1 4 0
 11 0
 -11 -1 -2 5 0
 -11 -1 12 0
 -11 4 -2 5 0
 -11 4 12 0
 -12 -2 -3 6 0
 -12 -2 13 0
 -12 5 -3 6 0
 -12 5 13 0
